predicate array_int_element(var int: b, array [int] of int: as, var int: c)
predicate array_int_maximum(var int: m, array [int] of var int: x)
predicate array_int_minimum(var int: m, array [int] of var int: x)
predicate array_var_int_element(var int: b, array [int] of var int: as, var int: c)
predicate int_abs(var int: a, var int: b)
% predicate int_div(var int: a, var int: b, var int: c)
predicate int_eq(var int: a, var int: b)
predicate int_eq_reif(var int: a, var int: b, var bool: r)
predicate int_le(var int: a, var int: b)
predicate int_le_reif(var int: a, var int: b, var bool: r)
predicate int_lin_eq(array [int] of int: as, array [int] of var int: bs, int: c)
predicate int_lin_eq_imp(array [int] of int: as, array [int] of var int: bs, int: c, var bool: r)
predicate int_lin_eq_reif(array [int] of int: as, array [int] of var int: bs, int: c, var bool: r)
predicate int_lin_le(array [int] of int: as, array [int] of var int: bs, int: c)
predicate int_lin_le_imp(array [int] of int: as, array [int] of var int: bs, int: c, var bool: r)
predicate int_lin_le_reif(array [int] of int: as, array [int] of var int: bs, int: c, var bool: r)
predicate int_lin_ne(array [int] of int: as, array [int] of var int: bs, int: c)
predicate int_lin_ne_reif(array [int] of int: as, array [int] of var int: bs, int: c, var bool: r)
predicate int_lt(var int: a, var int: b)
predicate int_lt_reif(var int: a, var int: b, var bool: r)
% predicate int_max(var int: a, var int: b, var int: c)
% predicate int_min(var int: a, var int: b, var int: c)
% predicate int_mod(var int: a, var int: b, var int: c)
predicate int_ne(var int: a, var int: b)
predicate int_ne_reif(var int: a, var int: b, var bool: r)
% predicate int_plus(var int: a, var int: b, var int: c)
% predicate int_pow(var int: x, var int: y, var int: z)
predicate int_times(var int: a, var int: b, var int: c)
predicate array_bool_and(array [int] of var bool: as, var bool: r)
predicate array_bool_element(var int: b, array [int] of bool: as, var bool: c)
% predicate array_bool_xor(array [int] of var bool: as)
predicate array_var_bool_element(var int: b, array [int] of var bool: as, var bool: c)
predicate bool2int(var bool: a, var int: b)
% predicate bool_and(var bool: a, var bool: b, var bool: r)
predicate bool_clause(array [int] of var bool: as, array [int] of var bool: bs)
predicate bool_clause_reif(array [int] of var bool: as, array [int] of var bool: bs, var bool: r)
predicate bool_eq(var bool: a, var bool: b)
predicate bool_eq_reif(var bool: a, var bool: b, var bool: r)
predicate bool_le(var bool: a, var bool: b)
predicate bool_le_reif(var bool: a, var bool: b, var bool: r)
predicate bool_lin_eq(array [int] of int: as, array [int] of var bool: bs, var int: c)
predicate bool_lin_le(array [int] of int: as, array [int] of var bool: bs, int: c)
% predicate bool_lt(var bool: a, var bool: b)
% predicate bool_lt_reif(var bool: a, var bool: b, var bool: r)
predicate bool_not(var bool: a, var bool: b)
% predicate bool_or(var bool: a, var bool: b, var bool: r)
predicate bool_xor(var bool: a, var bool: b, var bool: r)
